unsat
(:SPACER-conj                         6
 :SPACER-inductive-gen                17
 :SPACER-inductive-gen-weaken-fail    24
 :SPACER-inductive-level              8
 :SPACER-max-depth                    13
 :SPACER-max-query-lvl                13
 :SPACER-non-local-gen                30
 :SPACER-num-active-lemmas            21
 :SPACER-num-ctp-blocked              31
 :SPACER-num-invariants               8
 :SPACER-num-is_invariant             60
 :SPACER-num-lemmas                   61
 :SPACER-num-pobs                     14
 :SPACER-num-propagations             3
 :SPACER-num-queries                  39
 :added-eqs                           2856
 :arith-assert-diseq                  736
 :arith-assert-lower                  5434
 :arith-assert-upper                  4766
 :arith-bound-prop                    276
 :arith-conflicts                     52
 :arith-eq-adapter                    396
 :arith-fixed-eqs                     432
 :arith-num-rows                      38
 :arith-offset-eqs                    132
 :arith-pivots                        484
 :arith-row-summations                2560
 :arith-tableau-max-columns           84
 :arith-tableau-max-rows              38
 :conflicts                           498
 :decisions                           3144
 :del-clause                          546
 :final-checks                        178
 :iuc_solver.num_proxies              46
 :max-memory                          31.74
 :memory                              31.29
 :minimized-lits                      54
 :mk-bool-var                         2560
 :mk-clause                           1240
 :num-allocs                          28225810
 :num-checks                          516
 :pool_solver.checks                  258
 :pool_solver.checks.sat              89
 :propagations                        20824
 :rlimit-count                        136420
 :time                                0.18
 :time.iuc_solver.get_iuc             0.03
 :time.iuc_solver.get_iuc.hyp_reduce1 0.01
 :time.iuc_solver.get_iuc.hyp_reduce2 0.01
 :time.iuc_solver.get_iuc.learn_core  0.01
 :time.pool_solver.proof              0.01
 :time.pool_solver.smt.total          0.05
 :time.pool_solver.smt.total.sat      0.02
 :time.spacer.ctp                     0.00
 :time.spacer.init_rules              0.00
 :time.spacer.mbp                     0.00
 :time.spacer.solve                   0.16
 :time.spacer.solve.propagate         0.02
 :time.spacer.solve.reach             0.14
 :time.spacer.solve.reach.children    0.01
 :time.spacer.solve.reach.cluster     0.02
 :time.spacer.solve.reach.gen.global  0.01
 :time.spacer.solve.reach.gen.ind     0.01
 :time.spacer.solve.reach.is-reach    0.00)
(:max-memory   31.74
 :memory       31.29
 :num-allocs   28225810
 :rlimit-count 136420
 :time         0.18
 :total-time   0.19)
